Data path: /scratch/opt/lxu/CFLG/benchmarks/tree_A
Instance: treeA.200.30
Result path: /scratch/opt/lxu/CFLG/results/tree_A
Solver: Gurobi
Time limit: 7200
Formulation: LEFPAD
Cover: Large
julia --project=. src/main.jl /scratch/opt/lxu/CFLG/benchmarks/tree_A treeA.200.30 /scratch/opt/lxu/CFLG/results/tree_A Gurobi 7200 LEFPAD Large
The latest version of Julia in the `release` channel is 1.11.6+0.x64.linux.gnu. You currently have `1.11.4+0.x64.linux.gnu` installed. Run:

  juliaup update

in your terminal shell to install Julia 1.11.6+0.x64.linux.gnu and update the `release` channel to that version.
/scratch/opt/lxu/CFLG/benchmarks/tree_A Gurobi 7200.0 /scratch/opt/lxu/CFLG/results/tree_A treeA.200.30 LEFPAD Large
/scratch/opt/lxu/CFLG/benchmarks/tree_A/treeA.200.30

 read graph
data loaded

problem_graph/original graph: node: 200/200 edge: 229/229 dlt: 3.01659423687247 break_avg_len: 1.508297118436235 break_max_len: 1.989306290380763Vbar/V, Ebar/E(106, 200, 135, 229)
Set parameter TokenServer to value "solice01.zib.de"
Set parameter Threads to value 1
Set parameter OutputFlag to value 1
Gurobi Optimizer version 12.0.1 build v12.0.1rc0 (linux64 - "Debian GNU/Linux 12 (bookworm)")

CPU model: Intel(R) Xeon(R) Gold 5222 CPU @ 3.80GHz, instruction set [SSE2|AVX|AVX2|AVX512]
Thread count: 8 physical cores, 16 logical processors, using up to 1 threads

Non-default parameters:
Threads  1

Optimize a model with 329 rows, 537 columns and 895 nonzeros
Model fingerprint: 0x7c2efcef
Coefficient statistics:
  Matrix range     [1e+00, 1e+00]
  Objective range  [1e+00, 1e+00]
  Bounds range     [1e+00, 1e+00]
  RHS range        [1e+00, 1e+00]
Presolve removed 166 rows and 205 columns
Presolve time: 0.00s
Presolved: 163 rows, 332 columns, 524 nonzeros

Iteration    Objective       Primal Inf.    Dual Inf.      Time
       0    1.7900000e+02   9.300000e+01   0.000000e+00      0s
      68    1.0600000e+02   0.000000e+00   0.000000e+00      0s

Solved in 68 iterations and 0.00 seconds (0.00 work units)
Optimal objective  1.060000000e+02

User-callback calls 147, time in user-callback 0.00 sec
elapsed CPU time: 0.983113 seconds
Set parameter TokenServer to value "solice01.zib.de"
Set parameter Threads to value 1
Set parameter OutputFlag to value 1
Set parameter MIPGap to value 0.0001
Set parameter TimeLimit to value 7199.016887

 more cuts: false 3.01659423687247 false
is_attach:trueformulation:LEFPAD0 179 150

 model loaded

Gurobi Optimizer version 12.0.1 build v12.0.1rc0 (linux64 - "Debian GNU/Linux 12 (bookworm)")

CPU model: Intel(R) Xeon(R) Gold 5222 CPU @ 3.80GHz, instruction set [SSE2|AVX|AVX2|AVX512]
Thread count: 8 physical cores, 16 logical processors, using up to 1 threads

Non-default parameters:
TimeLimit  7199.016887
Threads  1

Optimize a model with 8105 rows, 5154 columns and 22702 nonzeros
Model fingerprint: 0x42dfe7c5
Variable types: 2577 continuous, 2577 integer (2577 binary)
Coefficient statistics:
  Matrix range     [9e-04, 3e+00]
  Objective range  [1e+00, 1e+00]
  Bounds range     [8e-02, 3e+00]
  RHS range        [8e-02, 5e+00]
Presolve removed 3828 rows and 1765 columns
Presolve time: 0.10s
Presolved: 4277 rows, 3389 columns, 14803 nonzeros
Variable types: 1574 continuous, 1815 integer (1815 binary)
Found heuristic solution: objective 161.0000000
Found heuristic solution: objective 89.0000000

Root relaxation: objective 3.932466e+01, 2471 iterations, 0.08 seconds (0.08 work units)

    Nodes    |    Current Node    |     Objective Bounds      |     Work
 Expl Unexpl |  Obj  Depth IntInf | Incumbent    BestBd   Gap | It/Node Time

     0     0   39.32466    0  445   89.00000   39.32466  55.8%     -    0s
H    0     0                      81.0000000   39.32466  51.5%     -    0s
H    0     0                      57.0000000   39.32466  31.0%     -    0s
     0     0   41.60225    0  405   57.00000   41.60225  27.0%     -    0s
H    0     0                      55.0000000   41.60225  24.4%     -    0s
H    0     0                      54.0000000   41.60225  23.0%     -    0s
     0     0   41.60225    0  378   54.00000   41.60225  23.0%     -    0s
     0     0   43.55350    0  375   54.00000   43.55350  19.3%     -    0s
H    0     0                      53.0000000   43.55350  17.8%     -    0s
     0     0   43.57586    0  358   53.00000   43.57586  17.8%     -    0s
     0     0   43.57592    0  354   53.00000   43.57592  17.8%     -    0s
     0     0   43.87778    0  305   53.00000   43.87778  17.2%     -    0s
H    0     0                      50.0000000   43.87778  12.2%     -    0s
     0     0   44.00850    0  310   50.00000   44.00850  12.0%     -    0s
     0     0   44.00850    0  308   50.00000   44.00850  12.0%     -    0s
     0     0   44.87259    0  346   50.00000   44.87259  10.3%     -    0s
     0     0   44.87259    0  364   50.00000   44.87259  10.3%     -    0s
     0     0   44.87259    0  341   50.00000   44.87259  10.3%     -    0s
     0     0   45.00000    0  332   50.00000   45.00000  10.0%     -    0s
H    0     0                      49.0000000   45.00000  8.16%     -    0s
H    0     0                      48.0000000   45.00000  6.25%     -    0s
     0     0   45.00000    0  300   48.00000   45.00000  6.25%     -    0s
     0     0   45.00000    0  332   48.00000   45.00000  6.25%     -    0s
     0     0   45.00000    0  319   48.00000   45.00000  6.25%     -    0s
     0     0   45.00000    0  108   48.00000   45.00000  6.25%     -    1s
     0     0   45.00000    0  179   48.00000   45.00000  6.25%     -    1s
     0     0   45.00000    0   75   48.00000   45.00000  6.25%     -    1s
     0     0   45.00000    0  128   48.00000   45.00000  6.25%     -    1s
     0     0   45.00000    0   66   48.00000   45.00000  6.25%     -    1s
     0     0   45.00000    0  104   48.00000   45.00000  6.25%     -    1s
     0     0   45.00000    0   91   48.00000   45.00000  6.25%     -    1s
     0     0   45.00000    0   91   48.00000   45.00000  6.25%     -    1s
H    0     0                      47.0000000   45.00000  4.26%     -    1s
     0     2   45.00000    0   68   47.00000   45.00000  4.26%     -    1s
   892   350   45.97370   10  225   47.00000   45.06090  4.13%  49.5    5s

Cutting planes:
  Gomory: 11
  Cover: 26
  Implied bound: 33
  Clique: 9
  MIR: 45
  Flow cover: 55
  GUB cover: 12
  Zero half: 11
  RLT: 33
  Relax-and-lift: 14
  BQP: 8

Explored 909 nodes (85326 simplex iterations) in 6.44 seconds (5.02 work units)
Thread count was 1 (of 16 available processors)

Solution count 10: 47 48 49 ... 89

Optimal solution found (tolerance 1.00e-04)
Best objective 4.700000000000e+01, best bound 4.700000000000e+01, gap 0.0000%

User-callback calls 5264, time in user-callback 0.00 sec

 sepatime0 0 0
47.0
Stat(MathOptInterface.OPTIMAL, 47.0, 47.0, 0.0, 0.0, 0.983113, 6.443222999572754, 909, Main.CFLG.LEFPAD, "", #undef)
